 vasp.6.3.2 27Jun22 (build Sep  5 2022 18:50:32) complex
 executed on              LinuxNV date 2023.01.21  23:44:29

 INCAR:
   ISPIN = 2        (Spin polarised DFT)
   MAGMOM = 16*4.0 16*-4.0 96*0.0 32*0.0          (Set this parameters manually)
   LASPH = .TRUE.    (Non-spherical elements, d/f convergence)
   GGA_COMPAT = .FALSE.   (Apply spherical cutoff on gradient field)
   VOSKOWN = 1        (Enhances the magnetic moments and the magnetic energies)
   LMAXMIX = 6        (For d elements increase LMAXMIX to 4, f: LMAXMIX \= 6)
   LORBIT = 11
   IDIPOL = 3
   LDIPOL = .True.
   LDAU = .TRUE.        (Activate DFT+U)
   LDATYPE = 2            (Dudarev, only U-J matters)
   LDAUL = 2 -1 -1        (Orbitals for each species)
   LDAUU = 4.5  0 0        (U for each species)
   LDAUJ = 0  0 0        (J for each species)
   LMAXMIX = 4            (Mixing cut-off, 4-d, 6-f)
   LREAL = .FALSE.       (Projection operators: automatic)
   ENCUT = 520        (Cut-off energy for plane wave basis set, in eV)
   PREC = Accurate   (Precision level: Normal or Accurate, set Accurate when perform structure lattice relaxation calculation)
   LWAVE = .TRUE.        (Write WAVECAR or not)
   LCHARG = .TRUE.        (Write CHGCAR or not)
   ADDGRID = .TRUE.        (Increase grid, helps GGA convergence)
   ALGO = Fast
   IVDW = 12
   ISMEAR = -1            (Gaussian smearing, metals:1)
   SIGMA = 0.05         (Smearing value in eV, metals:0.2)
   NELM = 150           (Max electronic SCF steps)
   NELMIN = 6            (Min electronic SCF steps)
   EDIFF = 1E-04        (SCF energy convergence, in eV)
   NSW = 0          (Max ionic steps)
   IBRION = 2            (Algorithm: 0-MD, 1-Quasi-New, 2-CG)
   ISIF = 2            (Stress/relaxation: 2-Ions, 3-Shape/Ions/V, 4-Shape/Ions)
   EDIFFG = -1E-02        (Ionic convergence, eV/AA)
   ISYM = 2            (Symmetry: 0\=none, 2\=GGA, 3\=hybrids)

 POTCAR:    PAW_PBE Mn_pv 02Aug2007
 POTCAR:    PAW_PBE O 08Apr2002
 POTCAR:    PAW_PBE La 06Sep2000
 POTCAR:    PAW_PBE Mn_pv 02Aug2007
   VRHFIN =Mn: 3p4s3d

   TITEL  = PAW_PBE Mn_pv 02Aug2007
   POMASS =   54.938; ZVAL   =   13.000    mass and valenz
   ENMAX  =  269.864; ENMIN  =  202.398 eV

   TITEL  = PAW_PBE O 08Apr2002
   POMASS =   16.000; ZVAL   =    6.000    mass and valenz
   ENMAX  =  400.000; ENMIN  =  300.000 eV

   TITEL  = PAW_PBE La 06Sep2000
   POMASS =  138.900; ZVAL   =   11.000    mass and valenz
   ENMAX  =  219.292; ENMIN  =  164.469 eV

  PAW_PBE Mn_pv 02Aug2007               :
  PAW_PBE O 08Apr2002                   :
  PAW_PBE La 06Sep2000                  :

 POSCAR: Converted by xsd2pos.py
  positions in direct lattice
  velocities in cartesian coordinates
 exchange correlation table for  LEXCH =        8
   RHO(1)=    0.500       N(1)  =     2000
   RHO(2)=  100.500       N(2)  =     4000

 ion  position               nearest neighbor table
   1  0.002  0.997  0.479- 122 1.98 121 1.99  69 2.00  50 2.01  95 2.15 158 3.28 135 3.31 143 3.34
                           142 3.34
   2  0.255  0.247  0.479- 123 1.98 124 1.99  50 2.00  47 2.01  54 2.15 151 3.28 134 3.31 135 3.34
                           142 3.34
   3  0.250  0.250  0.112-  36 2.01  35 2.01  41 2.02  42 2.02  33 2.02  34 2.02 129 3.26 130 3.26
                           132 3.38 131 3.38
   4  0.000  0.000  0.112- 100 2.01  33 2.01  62 2.02  83 2.02  58 2.02  79 2.02 156 3.26 131 3.26
                           145 3.38 138 3.38
   5  0.000  0.000  0.234-  38 2.01 115 2.01  83 2.02  59 2.02  92 2.02  74 2.03 131 3.26 160 3.32
                           138 3.38
   6  0.250  0.250  0.234-  37 2.01  48 2.01  42 2.02  38 2.02  49 2.02  53 2.03 130 3.26 133 3.32
                           131 3.38
   7  0.250  0.250  0.356-  54 1.89  46 1.93  43 1.95  45 1.97  44 1.97  53 2.02 133 3.22 136 3.34
                           152 3.39
   8  0.004  0.001  0.356-  95 1.88  74 2.01  43 2.05  68 2.08  89 2.11 110 2.11 160 3.22 133 3.35
                           149 3.38
   9  0.002  0.497  0.479- 126 1.98 125 1.99  47 2.00  72 2.01 117 2.15 150 3.28 143 3.31 135 3.34
                           134 3.34
  10  0.255  0.747  0.479- 127 1.98 128 1.99  72 2.00  69 2.01  76 2.15 159 3.28 142 3.31 143 3.34
                           134 3.34
  11  0.250  0.750  0.112-  57 2.01  58 2.01  63 2.02  64 2.02  55 2.02  56 2.02 137 3.26 138 3.26
                           140 3.38 139 3.38
  12  0.000  0.500  0.112-  78 2.01  55 2.01  40 2.02 105 2.02 101 2.02  36 2.02 148 3.26 139 3.26
                           153 3.38 130 3.38
  13  0.000  0.500  0.234-  93 2.01  60 2.01 105 2.02 114 2.02  37 2.02  52 2.03 139 3.26 152 3.32
                           130 3.38
  14  0.250  0.750  0.234-  59 2.01  70 2.01  64 2.02  60 2.02  71 2.02  75 2.03 138 3.26 141 3.32
                           139 3.38
  15  0.250  0.750  0.356-  76 1.89  68 1.93  65 1.95  67 1.97  66 1.97  75 2.02 141 3.22 144 3.34
                           160 3.39
  16  0.004  0.501  0.356- 117 1.88  52 2.01  65 2.05  46 2.08 111 2.11  88 2.11 152 3.22 141 3.35
                           157 3.38
  17  0.502  0.997  0.479- 128 1.94 123 1.95 113 2.00  94 2.01  51 2.15 142 3.27 151 3.31 158 3.33
                           159 3.34
  18  0.755  0.247  0.479- 121 1.94 126 1.95  94 2.00  91 2.01  98 2.15 135 3.27 150 3.31 151 3.33
                           158 3.34
  19  0.750  0.250  0.112-  80 2.01  79 2.01  85 2.02  86 2.02  77 2.02  78 2.02 145 3.26 146 3.26
                           148 3.38 147 3.38
  20  0.500  0.000  0.112-  77 2.01  56 2.01 106 2.02  39 2.02 102 2.02  35 2.02 140 3.26 147 3.26
                           129 3.38 154 3.38
  21  0.500  0.000  0.234-  82 2.01  71 2.01  39 2.02 103 2.02  48 2.02 118 2.03 147 3.26 144 3.32
                           154 3.38
  22  0.750  0.250  0.234-  81 2.01  92 2.01  86 2.02  82 2.02  93 2.02  97 2.03 146 3.26 149 3.32
                           147 3.38
  23  0.750  0.250  0.356-  98 1.89  90 1.93  87 1.95  89 1.97  88 1.97  97 2.02 149 3.22 152 3.34
                           136 3.39
  24  0.504  0.001  0.356-  51 1.88 118 2.00  87 2.06 112 2.08  45 2.10  66 2.11 144 3.22 149 3.35
                           133 3.38
  25  0.502  0.497  0.479- 124 1.94 127 1.95  91 2.00 116 2.01  73 2.15 134 3.27 159 3.31 150 3.33
                           151 3.34
  26  0.755  0.747  0.479- 125 1.94 122 1.95 116 2.00 113 2.01 120 2.15 143 3.27 158 3.31 159 3.33
                           150 3.34
  27  0.750  0.750  0.112- 101 2.01 102 2.01 107 2.02 108 2.02  99 2.02 100 2.02 153 3.26 154 3.26
                           156 3.38 155 3.38
  28  0.500  0.500  0.112-  34 2.01  99 2.01  84 2.02  61 2.02  57 2.02  80 2.02 132 3.26 155 3.26
                           137 3.38 146 3.38
  29  0.500  0.500  0.234-  49 2.01 104 2.01  61 2.02  70 2.02  81 2.02  96 2.03 155 3.26 136 3.32
                           146 3.38
  30  0.750  0.750  0.234- 103 2.01 114 2.01 108 2.02 104 2.02 115 2.02 119 2.03 154 3.26 157 3.32
                           155 3.38
  31  0.750  0.750  0.356- 120 1.89 112 1.93 109 1.95 111 1.97 110 1.97 119 2.02 157 3.22 160 3.34
                           144 3.39
  32  0.504  0.501  0.356-  73 1.88  96 2.00 109 2.06  90 2.08  67 2.10  44 2.11 136 3.22 157 3.35
                           141 3.38
  33  0.142  0.107  0.122-   4 2.01   3 2.02 138 2.46 131 2.66 129 2.78
  34  0.358  0.393  0.102-  28 2.01   3 2.02 137 2.46 132 2.66 130 2.78
  35  0.392  0.143  0.102-   3 2.01  20 2.02 132 2.46 129 2.66 147 2.78
  36  0.108  0.357  0.122-   3 2.01  12 2.02 131 2.46 130 2.66 148 2.78
  37  0.108  0.357  0.224-   6 2.01  13 2.02 131 2.46 130 2.66
  38  0.142  0.107  0.224-   5 2.01   6 2.02 138 2.46 131 2.66
  39  0.463  0.008  0.173-  21 2.02  20 2.02 138 2.43 147 2.55
  40  0.037  0.492  0.051-  12 2.02 137 2.43 148 2.55
  41  0.213  0.242  0.051-   3 2.02 148 2.43 129 2.55
  42  0.287  0.258  0.173-   6 2.02   3 2.02 147 2.43 130 2.55
  43  0.155  0.105  0.363-   7 1.95   8 2.05 142 2.57 133 2.58
  44  0.353  0.390  0.345-   7 1.97  32 2.11 141 2.40 136 2.61
  45  0.390  0.148  0.345-   7 1.97  24 2.10 136 2.37 133 2.61
  46  0.107  0.346  0.363-   7 1.93  16 2.08 135 2.55 152 2.61
  47  0.130  0.373  0.470-   9 2.00   2 2.01 134 2.48 135 2.52
  48  0.392  0.143  0.243-   6 2.01  21 2.02 136 2.53 133 2.73 147 2.78
  49  0.358  0.393  0.243-  29 2.01   6 2.02 141 2.53 136 2.73 130 2.78
  50  0.128  0.123  0.470-   2 2.00   1 2.01 135 2.48 142 2.53
  51  0.478  0.005  0.413-  24 1.88  17 2.15 142 2.49 151 2.73
  52  0.035  0.493  0.295-  16 2.01  13 2.03 141 2.44 152 2.55
  53  0.215  0.243  0.295-   7 2.02   6 2.03 152 2.44 133 2.55
  54  0.280  0.255  0.413-   7 1.89   2 2.15 151 2.48 134 2.73
  55  0.142  0.607  0.122-  12 2.01  11 2.02 130 2.46 139 2.66 137 2.78
  56  0.358  0.893  0.102-  20 2.01  11 2.02 129 2.46 140 2.66 138 2.78
  57  0.392  0.643  0.102-  11 2.01  28 2.02 140 2.46 137 2.66 155 2.78
  58  0.108  0.857  0.122-  11 2.01   4 2.02 139 2.46 138 2.66 156 2.78
  59  0.108  0.857  0.224-  14 2.01   5 2.02 139 2.46 138 2.66
  60  0.142  0.607  0.224-  13 2.01  14 2.02 130 2.46 139 2.66
  61  0.463  0.508  0.173-  29 2.02  28 2.02 130 2.43 155 2.55
  62  0.037  0.992  0.051-   4 2.02 129 2.43 156 2.55
  63  0.213  0.742  0.051-  11 2.02 156 2.43 137 2.55
  64  0.287  0.758  0.173-  14 2.02  11 2.02 155 2.43 138 2.55
  65  0.155  0.605  0.363-  15 1.95  16 2.05 134 2.57 141 2.58
  66  0.353  0.890  0.345-  15 1.97  24 2.11 133 2.40 144 2.61
  67  0.390  0.648  0.345-  15 1.97  32 2.10 144 2.37 141 2.61
  68  0.107  0.846  0.363-  15 1.93   8 2.08 143 2.55 160 2.61
  69  0.130  0.873  0.470-   1 2.00  10 2.01 142 2.48 143 2.52
  70  0.392  0.643  0.243-  14 2.01  29 2.02 144 2.53 141 2.72 155 2.78
  71  0.358  0.893  0.243-  21 2.01  14 2.02 133 2.53 144 2.72 138 2.78
  72  0.128  0.623  0.470-  10 2.00   9 2.01 143 2.48 134 2.53
  73  0.478  0.505  0.413-  32 1.88  25 2.15 134 2.49 159 2.73
  74  0.035  0.993  0.295-   8 2.01   5 2.03 133 2.44 160 2.55
  75  0.215  0.743  0.295-  15 2.02  14 2.03 160 2.44 141 2.55
  76  0.280  0.755  0.413-  15 1.89  10 2.15 159 2.48 142 2.73
  77  0.642  0.107  0.122-  20 2.01  19 2.02 154 2.46 147 2.66 145 2.78
  78  0.858  0.393  0.102-  12 2.01  19 2.02 153 2.46 148 2.66 146 2.78
  79  0.892  0.143  0.102-  19 2.01   4 2.02 148 2.46 145 2.66 131 2.78
  80  0.608  0.357  0.122-  19 2.01  28 2.02 147 2.46 146 2.66 132 2.78
  81  0.608  0.357  0.224-  22 2.01  29 2.02 147 2.46 146 2.66
  82  0.642  0.107  0.224-  21 2.01  22 2.02 154 2.46 147 2.66
  83  0.963  0.008  0.173-   5 2.02   4 2.02 154 2.43 131 2.55
  84  0.537  0.492  0.051-  28 2.02 153 2.43 132 2.55
  85  0.713  0.242  0.051-  19 2.02 132 2.43 145 2.55
  86  0.787  0.258  0.173-  22 2.02  19 2.02 131 2.43 146 2.55
  87  0.655  0.105  0.363-  23 1.95  24 2.06 158 2.57 149 2.58
  88  0.854  0.390  0.345-  23 1.97  16 2.11 157 2.39 152 2.61
  89  0.890  0.148  0.345-  23 1.97   8 2.11 152 2.37 149 2.61
  90  0.607  0.347  0.363-  23 1.93  32 2.08 151 2.55 136 2.60
  91  0.630  0.373  0.470-  25 2.00  18 2.01 150 2.47 151 2.52
  92  0.892  0.143  0.243-  22 2.01   5 2.02 152 2.53 149 2.72 131 2.78
[...]
[...]
   0.173E+01 0.875E+00 0.967E+03   0.388E-01 -.244E+01 -.967E+03   0.209E+00 0.220E-01 -.230E+00   -.193E+01 0.150E+01 0.117E+01
   0.234E+01 0.807E+00 0.970E+03   -.671E+00 -.219E+01 -.972E+03   -.244E+00 0.939E-02 -.356E+00   -.144E+01 0.138E+01 0.210E+01
   -.606E+01 -.290E+02 -.227E+04   0.322E+01 0.271E+02 0.227E+04   0.126E+00 -.146E+00 -.251E+01   0.286E+01 0.248E+01 0.121E+02
   0.690E+01 -.181E+02 -.226E+04   -.606E+01 0.195E+02 0.226E+04   -.312E+00 -.158E+00 -.279E+01   -.706E+00 -.106E+01 0.105E+02
   -.286E+02 0.166E+02 0.181E+04   0.294E+02 -.158E+02 -.180E+04   -.191E+01 0.107E+01 -.262E+01   0.967E+00 -.161E+01 -.221E+01
   0.279E+02 -.158E+02 0.210E+04   -.279E+02 0.154E+02 -.210E+04   0.232E+01 -.906E+00 0.179E+01   -.205E+01 0.117E+01 -.476E+00
   -.244E+02 -.121E+02 0.209E+04   0.278E+02 0.154E+02 -.210E+04   -.200E+01 -.130E+01 0.185E+01   -.152E+01 -.223E+01 0.892E+00
   0.266E+02 0.147E+02 0.181E+04   -.294E+02 -.158E+02 -.180E+04   0.215E+01 0.118E+01 -.288E+01   0.827E+00 0.145E+00 -.350E+01
   0.277E+02 0.147E+02 0.583E+03   -.316E+02 -.170E+02 -.586E+03   0.278E+01 0.197E+01 0.239E+01   0.133E+01 0.598E+00 0.889E+00
   -.298E+02 0.174E+02 0.585E+03   0.310E+02 -.176E+02 -.586E+03   -.265E+01 0.191E+01 0.232E+01   0.126E+01 -.139E+01 -.766E+00
   0.478E+02 0.131E+02 0.120E+04   -.491E+02 -.131E+02 -.120E+04   0.353E+01 0.236E+00 -.375E+00   -.145E+01 -.499E+00 -.504E+00
   0.449E+01 -.204E+02 0.276E+04   -.613E+01 0.222E+02 -.276E+04   -.903E+00 -.956E+00 0.983E+01   0.166E+01 -.566E+00 -.204E+01
   -.364E+01 -.205E+02 0.275E+04   0.613E+01 0.222E+02 -.276E+04   0.109E+01 -.922E+00 0.961E+01   -.267E+01 -.469E+00 -.168E+01
   -.477E+02 0.137E+02 0.120E+04   0.490E+02 -.131E+02 -.120E+04   -.348E+01 0.255E+00 -.495E-01   0.145E+01 -.119E+01 -.588E+00
   0.107E+02 0.582E+02 -.119E+04   -.816E+01 -.624E+02 0.119E+04   -.240E+01 0.401E+01 -.462E+01   -.108E+01 -.249E-01 0.104E+02
   0.139E+01 -.530E+02 -.921E+03   -.934E+00 0.567E+02 0.913E+03   0.112E+01 -.347E+01 0.189E+01   -.894E+00 -.257E+00 0.666E+01
   -.651E+02 0.168E+02 -.917E+03   0.692E+02 -.173E+02 0.909E+03   -.358E+01 -.318E+00 0.177E+01   -.343E+00 -.106E+00 0.657E+01
   0.593E+02 -.967E+01 -.119E+04   -.633E+02 0.101E+02 0.118E+04   0.474E+01 0.130E+01 -.433E+01   -.884E+00 -.935E+00 0.970E+01
   0.115E+01 -.519E+00 -.244E+04   -.153E+00 0.149E+01 0.245E+04   -.123E-01 0.213E+00 0.839E+00   -.103E+01 -.120E+01 -.244E+01
   -.283E+02 -.157E+02 0.308E+03   0.302E+02 0.174E+02 -.304E+03   -.295E+01 -.198E+01 -.384E+01   0.792E+00 0.308E-01 -.925E+00
   0.260E+02 -.168E+02 0.307E+03   -.294E+02 0.190E+02 -.303E+03   0.288E+01 -.201E+01 -.393E+01   0.680E+00 -.503E+00 0.200E+00
   0.198E+01 0.753E+00 -.244E+04   -.996E+00 -.109E+01 0.245E+04   0.832E-01 0.156E+00 0.972E+00   -.102E+01 0.152E+00 -.304E+01
   0.214E+02 -.220E+01 -.178E+04   -.206E+02 0.140E+01 0.179E+04   0.128E+01 -.130E+00 -.730E+01   -.143E+01 0.805E+00 0.399E+01
   -.372E+02 -.142E+02 -.291E+03   0.391E+02 0.140E+02 0.287E+03   -.224E+01 -.332E+00 0.116E+00   -.256E+00 0.926E+00 0.421E+01
   0.449E+02 -.145E+02 -.280E+03   -.473E+02 0.146E+02 0.276E+03   0.247E+01 -.647E+00 -.730E+00   0.578E+00 0.859E+00 0.394E+01
   -.201E+02 -.324E+01 -.180E+04   0.251E+02 0.387E+01 0.180E+04   -.164E+01 -.392E+00 -.696E+01   -.385E+01 -.383E+00 0.429E+01
   -.284E+02 0.141E+02 0.181E+04   0.294E+02 -.158E+02 -.180E+04   -.178E+01 0.115E+01 -.277E+01   0.658E+00 0.833E+00 -.220E+01
   0.263E+02 -.149E+02 0.210E+04   -.279E+02 0.154E+02 -.210E+04   0.281E+01 -.857E+00 0.201E+01   -.833E+00 0.295E+00 -.162E+00
   -.248E+02 -.148E+02 0.210E+04   0.278E+02 0.154E+02 -.210E+04   -.202E+01 -.173E+01 0.196E+01   -.106E+01 0.756E+00 -.296E+00
   0.267E+02 0.142E+02 0.181E+04   -.294E+02 -.158E+02 -.180E+04   0.215E+01 0.126E+01 -.311E+01   0.738E+00 0.543E+00 -.150E+01
   0.281E+02 0.153E+02 0.585E+03   -.316E+02 -.170E+02 -.586E+03   0.292E+01 0.198E+01 0.251E+01   0.827E+00 -.257E-01 -.538E+00
   -.290E+02 0.149E+02 0.585E+03   0.310E+02 -.176E+02 -.586E+03   -.254E+01 0.171E+01 0.214E+01   0.339E+00 0.124E+01 0.166E+00
[...]
   0.226E+02 -.406E+02 0.219E+04   -.206E+02 0.424E+02 -.219E+04   -.133E+00 0.310E+00 -.116E+00   -.179E+01 -.183E+01 0.965E-01
   0.352E+02 0.394E+02 0.483E+04   -.346E+02 -.368E+02 -.483E+04   -.111E+01 -.702E+00 -.370E+01   0.834E+00 -.202E+01 -.415E+01
   0.877E+01 0.490E+02 -.569E+03   -.868E+01 -.482E+02 0.561E+03   0.451E-01 -.480E+00 -.825E+00   0.781E-01 -.645E+00 0.833E+01
   0.163E+02 -.182E+01 -.337E+04   -.196E+02 0.391E+01 0.336E+04   -.522E+00 -.131E+00 -.112E+01   0.347E+01 -.194E+01 0.574E+01
   -.154E+02 -.180E+01 -.337E+04   0.152E+02 0.343E+01 0.336E+04   0.547E+00 -.180E+00 -.890E+00   -.173E+00 -.143E+01 0.575E+01
   -.188E+02 0.421E+02 -.573E+03   0.186E+02 -.413E+02 0.563E+03   0.657E-01 -.522E+00 -.797E+00   0.138E+00 -.423E+00 0.953E+01
   -.380E+02 0.368E+02 0.483E+04   0.346E+02 -.368E+02 -.483E+04   0.125E+01 -.936E+00 -.415E+01   0.203E+01 0.853E+00 -.429E+01
   -.193E+02 -.418E+02 0.219E+04   0.206E+02 0.424E+02 -.219E+04   0.840E-01 0.524E+00 -.496E-01   -.131E+01 -.979E+00 -.219E+01
   0.229E+02 -.441E+02 0.219E+04   -.206E+02 0.424E+02 -.219E+04   -.258E+00 0.237E+00 -.171E-01   -.198E+01 0.173E+01 -.386E+00
   0.353E+02 0.354E+02 0.483E+04   -.346E+02 -.368E+02 -.483E+04   -.123E+01 -.879E+00 -.399E+01   0.770E+00 0.214E+01 -.307E+01
   0.881E+01 0.478E+02 -.568E+03   -.869E+01 -.482E+02 0.561E+03   0.419E-01 -.511E+00 -.862E+00   0.725E-01 0.577E+00 0.768E+01
   0.163E+02 -.571E+01 -.337E+04   -.196E+02 0.389E+01 0.336E+04   -.448E+00 -.163E+00 -.111E+01   0.346E+01 0.192E+01 0.573E+01
   -.154E+02 -.461E+01 -.337E+04   0.152E+02 0.340E+01 0.336E+04   0.614E+00 -.242E+00 -.884E+00   -.223E+00 0.145E+01 0.542E+01
   -.188E+02 0.412E+02 -.570E+03   0.186E+02 -.413E+02 0.563E+03   0.299E-01 -.449E+00 -.987E+00   0.124E+00 0.342E+00 0.703E+01
   0.208E+01 0.519E+01 -.220E+03   -.107E-11 0.568E-13 -.123E-10   -.681E+00 -.790E+01 -.566E+02   -.142E+01 0.268E+01 0.275E+03

 POSITION                                       TOTAL-FORCE (eV/Angst)
      0.02325     11.16491     15.53453         0.064286     -0.010697     -0.279195
      2.83206      2.76436     15.53430        -0.016640     -0.015022     -0.296895
      2.77596      2.80006      3.62986        -0.502138     -0.111320     -0.331501
      0.00000      0.00000      3.62986         0.546245     -0.099882     -0.287233
      0.00000      0.00000      7.57407        -0.031777     -0.025432      0.405655
      2.77596      2.80006      7.57407        -0.013803     -0.074433      0.473735
      2.77335      2.80109     11.54350         0.311681      0.395545      0.392634
      0.04996      0.01074     11.54061        -0.166193      0.183408      0.391180
      0.02325      5.56479     15.53452        -0.035274      0.021715     -0.266224
      2.83204      8.36447     15.53429        -0.031058      0.026118     -0.338146
      2.77596      8.40018      3.62986        -0.490395     -0.141439     -0.267264
      0.00000      5.60012      3.62986         0.558875     -0.071087     -0.309962
      0.00000      5.60012      7.57407         0.035269     -0.001205      0.414095
      2.77596      8.40018      7.57407        -0.009735     -0.054940      0.486805
      2.77333      8.40119     11.54354         0.287619      0.484278      0.398902
      0.04992      5.61085     11.54054        -0.197333      0.189362      0.384995
      5.57724     11.16473     15.52472         0.353627      0.017936     -0.295294
      8.38178      2.76439     15.52504        -0.346940      0.046194     -0.282481
      8.32788      2.80006      3.62986        -0.317596      0.041945     -0.434242
      5.55192      0.00000      3.62986         0.327476     -0.143167     -0.461551
      5.55192      0.00000      7.57407         0.055714     -0.077852      0.402637
      8.32788      2.80006      7.57407        -0.038750     -0.024566      0.491854
      8.32655      2.80348     11.53981         0.243604      0.375318      0.429441
      5.60091      0.01208     11.53641        -0.179916      0.197811      0.411359
      5.57722      5.56457     15.52466         0.324169      0.011787     -0.322664
      8.38178      8.36453     15.52505        -0.336724      0.022787     -0.310481
      8.32788      8.40018      3.62986        -0.325009     -0.079792     -0.379203
      5.55192      5.60012      3.62986         0.348611     -0.051583     -0.454721
      5.55192      5.60012      7.57407         0.041002     -0.049798      0.395342
      8.32788      8.40018      7.57407        -0.016847      0.013424      0.442951
      8.32656      8.40356     11.53980         0.151715      0.424530      0.339109
      5.60093      5.61222     11.53633        -0.181346      0.175151      0.421572
      1.57934      1.19932      3.94421        -0.171875      0.249357     -0.670581
      3.97259      4.40080      3.31550         0.291957     -0.144338      0.248976
      4.35529      1.60073      3.31550        -0.094775     -0.250249      0.264985
      1.19663      3.99938      3.94421         0.192183      0.202722     -0.648505
      1.19663      3.99938      7.25975         0.219565      0.318949      0.492065
      1.57934      1.19932      7.25975        -0.222939      0.354420      0.530558
      5.14214      0.08715      5.60198         0.739910     -0.349991     -0.153930
      0.40978      5.51297      1.65777        -0.882689      0.310537      0.326960
      2.36618      2.71291      1.65777         0.904639      0.288660      0.254023
      3.18574      2.88721      5.60198        -0.755172     -0.359164     -0.025453
      1.72596      1.17342     11.77913        -0.895331     -0.207085     -0.223255
      3.92363      4.36768     11.20499         0.679250      0.012262      0.710640
      4.33342      1.65478     11.19502         0.122654     -0.847453      0.777433
      1.18702      3.87987     11.77625        -0.130537      0.820302     -0.279798
      1.43821      4.17906     15.25675        -0.042188     -0.009204      0.736335
      4.35529      1.60073      7.88843        -0.207096     -0.239607     -0.417439
      3.97259      4.40080      7.88843         0.201320     -0.250622     -0.425367
      1.41783      1.37899     15.25801         0.039652     -0.033539      0.721292
      5.30316      0.05145     13.39064         0.652105     -0.123853     -0.385343
      0.39201      5.51935      9.56368        -0.621359      0.354915     -0.310341
      2.38376      2.71925      9.56371         0.617113      0.341523     -0.575903
      3.11288      2.85593     13.40442        -0.550174     -0.146827     -0.369916
      1.57934      6.79945      3.94421        -0.121664      0.254600     -0.711877
      3.97259     10.00091      3.31550         0.410004     -0.050594      0.319513
      4.35529      7.20085      3.31550        -0.076687     -0.387089      0.308206
      1.19663      9.59951      3.94421         0.173722      0.228784     -0.701388
      1.19663      9.59951      7.25975         0.254017      0.294974      0.497694
      1.57934      6.79945      7.25975        -0.236793      0.320487      0.543209
[...]
      8.28599      5.39485      5.60198         0.069237      0.240561      0.231144
      5.59381      2.59479      5.60198         0.005814      0.280684      0.229454
     11.06195      3.00533      1.65777         0.284209     -0.127475      0.147242
      8.36199      0.20499      9.64616         0.218765     -0.270169     -0.816054
      8.39037      5.54717     13.73360        -0.299884      0.026889     -0.602899
      5.57252      2.74811     13.73633         0.154246      0.014301     -0.657886
     11.06976      3.00499      9.64600        -0.069059     -0.179109     -0.843940
      8.36977      5.80539      1.65777        -0.115852     -0.090083      0.094311
      8.28599     10.99497      5.60198         0.097345      0.153821      0.287014
      5.59381      8.19491      5.60198         0.026560      0.232004      0.239162
     11.06195      8.60545      1.65777         0.180991     -0.140835      0.272602
      8.36201      5.80513      9.64603         0.236794     -0.266846     -0.806803
      8.39038     11.14729     13.73362        -0.305213     -0.063169     -0.628737
      5.57249      8.34828     13.73634         0.167348     -0.000652     -0.687956
     11.06976      8.60520      9.64603        -0.061206     -0.185566     -0.796997
    total drift:                               -0.021331     -0.029412     -1.773289

  FREE ENERGIE OF THE ION-ELECTRON SYSTEM (eV)
  free  energy   TOTEN  =     -1165.91731476 eV

  energy  without entropy=    -1164.70753373  energy(sigma->0) =    -1165.31242424

 writing wavefunctions

 total charge

[...]

 magnetization (x)

# of ion       s       p       d       f       tot
    1        0.036   0.032   3.826   0.000   3.894
    2        0.036   0.032   3.823   0.000   3.892
    3        0.021   0.031   3.571   0.000   3.622
    4        0.021   0.031   3.577   0.000   3.629
    5        0.021   0.030   3.547   0.000   3.598
    6        0.021   0.030   3.533   0.000   3.584
    7        0.020   0.025   3.236   0.000   3.281
    8        0.022   0.027   3.601   0.000   3.650
    9        0.037   0.032   3.822   0.000   3.891
   10        0.036   0.032   3.822   0.000   3.890
   11        0.021   0.031   3.575   0.000   3.628
   12        0.021   0.031   3.579   0.000   3.630
   13        0.021   0.029   3.546   0.000   3.596
   14        0.021   0.029   3.541   0.000   3.592
   15        0.020   0.025   3.230   0.000   3.275
   16        0.022   0.026   3.603   0.000   3.652
   17       -0.037  -0.033  -3.780   0.000  -3.850
   18       -0.037  -0.033  -3.779   0.000  -3.849
   19       -0.021  -0.030  -3.496   0.000  -3.547
   20       -0.021  -0.030  -3.508   0.000  -3.559
   21       -0.021  -0.030  -3.560   0.000  -3.611
   22       -0.022  -0.030  -3.546   0.000  -3.597
   23       -0.019  -0.025  -3.239   0.000  -3.283
   24       -0.022  -0.026  -3.632   0.000  -3.679
   25       -0.037  -0.033  -3.776   0.000  -3.846
   26       -0.037  -0.034  -3.777   0.000  -3.847
   27       -0.021  -0.031  -3.528   0.000  -3.580
   28       -0.021  -0.030  -3.529   0.000  -3.580
   29       -0.021  -0.030  -3.555   0.000  -3.606
   30       -0.021  -0.029  -3.567   0.000  -3.617
   31       -0.020  -0.026  -3.235   0.000  -3.280
   32       -0.022  -0.026  -3.601   0.000  -3.649
   33        0.002  -0.112   0.000   0.000  -0.110
   34       -0.000   0.008   0.000   0.000   0.008
   35       -0.001  -0.002   0.000   0.000  -0.003
   36        0.001  -0.113   0.000   0.000  -0.111
   37        0.000  -0.104   0.000   0.000  -0.104
   38        0.001  -0.106   0.000   0.000  -0.105
   39       -0.002   0.087   0.000   0.000   0.086
   40       -0.000  -0.081   0.000   0.000  -0.081
   41       -0.000  -0.078   0.000   0.000  -0.078
   42        0.001  -0.094   0.000   0.000  -0.093
   43       -0.000  -0.134   0.000   0.000  -0.135
   44       -0.001   0.019   0.000   0.000   0.017
   45       -0.002   0.002   0.000   0.000   0.000
   46       -0.000  -0.127   0.000   0.000  -0.127
   47       -0.002  -0.075   0.000   0.000  -0.077
   48       -0.001  -0.006   0.000   0.000  -0.007
   49       -0.000   0.000   0.000   0.000   0.000
   50       -0.002  -0.077   0.000   0.000  -0.079
   51       -0.006   0.104   0.000   0.000   0.098
   52        0.002  -0.055   0.000   0.000  -0.053
   53        0.002  -0.050   0.000   0.000  -0.047
   54        0.005  -0.107   0.000   0.000  -0.102
   55        0.002  -0.110   0.000   0.000  -0.108
   56        0.001   0.017   0.000   0.000   0.017
   57        0.000   0.005   0.000   0.000   0.005
   58        0.001  -0.111   0.000   0.000  -0.109
   59       -0.000  -0.105   0.000   0.000  -0.105
   60        0.001  -0.104   0.000   0.000  -0.103
[...]
  146       -0.013   0.005  -0.009  -0.470  -0.488
  147       -0.016   0.008  -0.010  -0.351  -0.369
  148        0.057  -0.039   0.006   0.688   0.712
  149       -0.013   0.005  -0.010  -0.409  -0.427
  150       -0.011   0.006  -0.010  -0.217  -0.232
  151       -0.013   0.005  -0.012  -0.373  -0.393
  152       -0.011   0.005  -0.003  -0.386  -0.396
  153       -0.038   0.019  -0.010  -0.835  -0.863
  154       -0.014   0.006  -0.009  -0.434  -0.450
  155       -0.017   0.008  -0.011  -0.332  -0.351
  156        0.016  -0.008   0.005   0.369   0.382
  157       -0.014   0.005  -0.010  -0.428  -0.448
  158       -0.003   0.003  -0.009  -0.079  -0.088
  159       -0.012   0.006  -0.011  -0.410  -0.427
  160       -0.012   0.006  -0.005  -0.359  -0.371
tot         -0.232  -0.074   0.171  -7.701  -7.836